<number of tasks>
50

<cycle time>
1000

<order strength>
0.596


<task times>
1 466
2 140
3 258
4 248
5 140
6 178
7 160
8 505
9 225
10 90
11 76
12 552
13 388
14 197
15 329
16 220
17 431
18 52
19 63
20 21
21 430
22 255
23 94
24 270
25 109
26 141
27 523
28 481
29 56
30 540
31 142
32 183
33 271
34 196
35 148
36 134
37 101
38 494
39 229
40 142
41 153
42 61
43 317
44 247
45 491
46 86
47 146
48 242
49 27
50 82

<precedence relations>
1,16
1,26
2,23
3,6
4,8
4,28
5,7
6,9
6,10
6,11
6,12
7,9
7,12
7,19
8,14
9,13
9,15
9,17
9,18
10,13
10,14
10,16
10,17
10,18
10,23
11,18
11,30
11,32
12,24
12,25
12,30
13,20
13,21
14,19
15,23
15,28
15,30
16,19
16,31
17,22
17,31
17,32
18,31
18,43
19,27
19,36
20,25
20,35
21,24
21,27
22,24
22,42
23,25
23,26
23,35
24,28
24,41
25,29
25,31
25,32
26,33
26,34
26,41
26,42
27,29
27,30
27,32
28,33
28,34
28,35
29,34
29,37
30,33
30,37
31,33
31,36
31,49
32,42
32,50
33,39
37,38
38,39
38,40
38,41
38,42
38,43
38,44
39,48
40,45
40,47
42,46
43,49
43,50
44,46
44,47

<end>
